p cnf 305 733
c x0 -> 173
c x1 -> 207
c x2 -> 147
c x3 -> 104
c x4 -> 143
c x5 -> 144
c x6 -> 66
c x7 -> 67
2 3 -1 0
-2 -3 -1 0
2 -3 1 0
-2 3 1 0
4 2 0
-4 -2 0
5 3 0
-5 -3 0
6 -4 0
7 -4 0
-6 -7 4 0
8 -5 0
9 -5 0
-8 -9 5 0
10 6 0
-10 -6 0
11 -7 0
12 -7 0
-11 -12 7 0
13 8 0
-13 -8 0
14 -9 0
15 -9 0
-14 -15 9 0
16 -10 0
17 -10 0
-16 -17 10 0
18 -11 0
19 -11 0
-18 -19 11 0
20 -12 0
21 -12 0
-20 -21 12 0
22 -13 0
23 -13 0
-22 -23 13 0
24 -14 0
25 -14 0
-24 -25 14 0
26 -15 0
27 -15 0
-26 -27 15 0
28 -16 0
29 -16 0
-28 -29 16 0
30 17 0
-30 -17 0
31 18 0
-31 -18 0
32 19 0
-32 -19 0
33 20 0
-33 -20 0
34 21 0
-34 -21 0
35 -22 0
36 -22 0
-35 -36 22 0
37 23 0
-37 -23 0
38 24 0
-38 -24 0
39 25 0
-39 -25 0
40 26 0
-40 -26 0
41 27 0
-41 -27 0
42 28 0
-42 -28 0
43 29 0
-43 -29 0
44 -30 0
45 -30 0
-44 -45 30 0
46 -31 0
47 -31 0
-46 -47 31 0
48 -32 0
49 -32 0
-48 -49 32 0
50 -33 0
51 -33 0
-50 -51 33 0
52 -34 0
53 -34 0
-52 -53 34 0
54 35 0
-54 -35 0
55 36 0
-55 -36 0
56 -37 0
57 -37 0
-56 -57 37 0
58 -38 0
59 -38 0
-58 -59 38 0
60 -39 0
61 -39 0
-60 -61 39 0
62 -40 0
63 -40 0
-62 -63 40 0
64 -41 0
65 -41 0
-64 -65 41 0
66 -42 0
67 -42 0
-66 -67 42 0
68 -43 0
69 -43 0
-68 -69 43 0
70 44 0
-70 -44 0
71 -45 0
72 -45 0
-71 -72 45 0
73 -46 0
74 -46 0
-73 -74 46 0
75 -47 0
76 -47 0
-75 -76 47 0
77 48 0
-77 -48 0
78 49 0
-78 -49 0
79 -50 0
80 -50 0
-79 -80 50 0
81 51 0
-81 -51 0
48 -52 0
82 -52 0
-48 -82 52 0
83 -53 0
84 -53 0
-83 -84 53 0
66 -54 0
67 -54 0
-66 -67 54 0
87 -55 0
88 -55 0
-87 -88 55 0
89 56 0
-89 -56 0
90 -57 0
91 -57 0
-90 -91 57 0
92 -58 0
93 -58 0
-92 -93 58 0
94 -59 0
95 -59 0
-94 -95 59 0
96 60 0
-96 -60 0
97 61 0
-97 -61 0
98 -62 0
99 -62 0
-98 -99 62 0
100 63 0
-100 -63 0
60 -64 0
101 -64 0
-60 -101 64 0
102 -65 0
103 -65 0
-102 -103 65 0
66 68 0
-66 -68 0
67 69 0
-67 -69 0
104 -70 0
105 -70 0
-104 -105 70 0
106 71 0
-106 -71 0
107 -72 0
108 -72 0
-107 -108 72 0
16 73 0
-16 -73 0
52 74 0
-52 -74 0
50 75 0
-50 -75 0
84 76 0
-84 -76 0
28 -77 0
80 -77 0
-28 -80 77 0
109 -78 0
110 -78 0
-109 -110 78 0
111 79 0
-111 -79 0
112 80 0
-112 -80 0
113 -81 0
114 -81 0
-113 -114 81 0
115 82 0
-115 -82 0
116 83 0
-116 -83 0
117 -84 0
118 -84 0
-117 -118 84 0
66 87 0
-66 -87 0
67 88 0
-67 -88 0
104 -89 0
120 -89 0
-104 -120 89 0
121 90 0
-121 -90 0
122 -91 0
123 -91 0
-122 -123 91 0
22 92 0
-22 -92 0
64 93 0
-64 -93 0
62 94 0
-62 -94 0
103 95 0
-103 -95 0
35 -96 0
99 -96 0
-35 -99 96 0
124 -97 0
125 -97 0
-124 -125 97 0
126 98 0
-126 -98 0
127 99 0
-127 -99 0
128 -100 0
129 -100 0
-128 -129 100 0
130 101 0
-130 -101 0
131 102 0
-131 -102 0
132 -103 0
133 -103 0
-132 -133 103 0
134 105 0
-134 -105 0
135 -106 0
136 -106 0
-135 -136 106 0
137 107 0
-137 -107 0
138 108 0
-138 -108 0
139 109 0
-139 -109 0
140 110 0
-140 -110 0
141 -111 0
142 -111 0
-141 -142 111 0
143 -112 0
144 -112 0
-143 -144 112 0
145 113 0
-145 -113 0
146 114 0
-146 -114 0
29 -115 0
79 -115 0
-29 -79 115 0
147 -116 0
104 -116 0
-147 -104 116 0
148 117 0
-148 -117 0
149 118 0
-149 -118 0
150 120 0
-150 -120 0
151 -121 0
152 -121 0
-151 -152 121 0
153 122 0
-153 -122 0
154 123 0
-154 -123 0
155 124 0
-155 -124 0
156 125 0
-156 -125 0
157 -126 0
158 -126 0
-157 -158 126 0
143 -127 0
144 -127 0
-143 -144 127 0
161 128 0
-161 -128 0
162 129 0
-162 -129 0
36 -130 0
98 -130 0
-36 -98 130 0
147 -131 0
104 -131 0
-147 -104 131 0
164 132 0
-164 -132 0
165 133 0
-165 -133 0
166 -134 0
167 -134 0
-166 -167 134 0
168 -135 0
169 -135 0
-168 -169 135 0
170 -136 0
50 -136 0
-170 -50 136 0
171 -137 0
172 -137 0
-171 -172 137 0
173 -138 0
174 -138 0
-173 -174 138 0
175 -139 0
176 -139 0
-175 -176 139 0
177 -140 0
178 -140 0
-177 -178 140 0
143 141 0
-143 -141 0
144 142 0
-144 -142 0
43 -145 0
179 -145 0
-43 -179 145 0
180 -146 0
181 -146 0
-180 -181 146 0
180 -148 0
182 -148 0
-180 -182 148 0
183 -149 0
184 -149 0
-183 -184 149 0
185 -150 0
186 -150 0
-185 -186 150 0
187 -151 0
188 -151 0
-187 -188 151 0
189 -152 0
62 -152 0
-189 -62 152 0
190 -153 0
191 -153 0
-190 -191 153 0
173 -154 0
193 -154 0
-173 -193 154 0
194 -155 0
195 -155 0
-194 -195 155 0
196 -156 0
197 -156 0
-196 -197 156 0
143 157 0
-143 -157 0
144 158 0
-144 -158 0
55 -161 0
198 -161 0
-55 -198 161 0
199 -162 0
200 -162 0
-199 -200 162 0
199 -164 0
201 -164 0
-199 -201 164 0
202 -165 0
203 -165 0
-202 -203 165 0
204 166 0
-204 -166 0
205 -167 0
206 -167 0
-205 -206 167 0
173 168 0
-173 -168 0
207 169 0
-207 -169 0
147 170 0
-147 -170 0
104 171 0
-104 -171 0
208 172 0
-208 -172 0
209 174 0
-209 -174 0
170 -175 0
80 -175 0
-170 -80 175 0
171 -176 0
135 -176 0
-171 -135 176 0
104 -177 0
210 -177 0
-104 -210 177 0
147 -178 0
211 -178 0
-147 -211 178 0
212 179 0
-212 -179 0
213 180 0
-213 -180 0
42 -181 0
214 -181 0
-42 -214 181 0
177 182 0
-177 -182 0
135 183 0
-135 -183 0
215 -184 0
83 -184 0
-215 -83 184 0
216 185 0
-216 -185 0
217 -186 0
218 -186 0
-217 -218 186 0
173 187 0
-173 -187 0
207 188 0
-207 -188 0
147 189 0
-147 -189 0
104 190 0
-104 -190 0
220 191 0
-220 -191 0
221 193 0
-221 -193 0
189 -194 0
99 -194 0
-189 -99 194 0
190 -195 0
151 -195 0
-190 -151 195 0
104 -196 0
222 -196 0
-104 -222 196 0
147 -197 0
223 -197 0
-147 -223 197 0
224 198 0
-224 -198 0
225 199 0
-225 -199 0
54 -200 0
226 -200 0
-54 -226 200 0
196 201 0
-196 -201 0
151 202 0
-151 -202 0
227 -203 0
102 -203 0
-227 -102 203 0
228 -204 0
229 -204 0
-228 -229 204 0
230 205 0
-230 -205 0
231 206 0
-231 -206 0
232 -208 0
233 -208 0
-232 -233 208 0
205 -209 0
234 -209 0
-205 -234 209 0
173 -210 0
207 -210 0
-173 -207 210 0
235 211 0
-235 -211 0
236 -212 0
237 -212 0
-236 -237 212 0
238 -213 0
83 -213 0
-238 -83 213 0
183 -214 0
215 -214 0
-183 -215 214 0
239 215 0
-239 -215 0
240 -216 0
241 -216 0
-240 -241 216 0
242 217 0
-242 -217 0
243 218 0
-243 -218 0
244 -220 0
245 -220 0
-244 -245 220 0
217 -221 0
246 -221 0
-217 -246 221 0
173 -222 0
207 -222 0
-173 -207 222 0
247 223 0
-247 -223 0
248 -224 0
249 -224 0
-248 -249 224 0
250 -225 0
102 -225 0
-250 -102 225 0
202 -226 0
227 -226 0
-202 -227 226 0
251 227 0
-251 -227 0
238 -228 0
111 -228 0
-238 -111 228 0
252 229 0
-252 -229 0
207 -230 0
253 -230 0
-207 -253 230 0
173 -231 0
254 -231 0
-173 -254 231 0
255 232 0
-255 -232 0
256 -233 0
257 -233 0
-256 -257 233 0
258 234 0
-258 -234 0
144 -235 0
67 -235 0
-144 -67 235 0
259 236 0
-259 -236 0
260 237 0
-260 -237 0
210 238 0
-210 -238 0
170 -239 0
171 -239 0
-170 -171 239 0
250 -240 0
126 -240 0
-250 -126 240 0
261 241 0
-261 -241 0
207 -242 0
262 -242 0
-207 -262 242 0
173 -243 0
263 -243 0
-173 -263 243 0
264 244 0
-264 -244 0
265 -245 0
266 -245 0
-265 -266 245 0
267 246 0
-267 -246 0
144 -247 0
67 -247 0
-144 -67 247 0
268 248 0
-268 -248 0
269 249 0
-269 -249 0
222 250 0
-222 -250 0
189 -251 0
190 -251 0
-189 -190 251 0
147 -252 0
183 -252 0
-147 -183 252 0
147 -253 0
112 -253 0
-147 -112 253 0
270 -254 0
271 -254 0
-270 -271 254 0
272 -255 0
273 -255 0
-272 -273 255 0
274 256 0
-274 -256 0
275 257 0
-275 -257 0
111 -258 0
239 -258 0
-111 -239 258 0
276 -259 0
277 -259 0
-276 -277 259 0
238 -260 0
184 -260 0
-238 -184 260 0
147 -261 0
202 -261 0
-147 -202 261 0
147 -262 0
127 -262 0
-147 -127 262 0
278 -263 0
279 -263 0
-278 -279 263 0
280 -264 0
281 -264 0
-280 -281 264 0
282 265 0
-282 -265 0
283 266 0
-283 -266 0
126 -267 0
251 -267 0
-126 -251 267 0
284 -268 0
285 -268 0
-284 -285 268 0
250 -269 0
203 -269 0
-250 -203 269 0
286 270 0
-286 -270 0
175 271 0
-175 -271 0
287 272 0
-287 -272 0
288 273 0
-288 -273 0
238 -274 0
136 -274 0
-238 -136 274 0
147 -275 0
228 -275 0
-147 -228 275 0
176 276 0
-176 -276 0
214 277 0
-214 -277 0
289 278 0
-289 -278 0
194 279 0
-194 -279 0
290 280 0
-290 -280 0
291 281 0
-291 -281 0
250 -282 0
152 -282 0
-250 -152 282 0
147 -283 0
240 -283 0
-147 -240 283 0
195 284 0
-195 -284 0
226 285 0
-226 -285 0
292 -286 0
293 -286 0
-292 -293 286 0
75 -287 0
294 -287 0
-75 -294 287 0
79 -288 0
183 -288 0
-79 -183 288 0
295 -289 0
296 -289 0
-295 -296 289 0
94 -290 0
297 -290 0
-94 -297 290 0
98 -291 0
202 -291 0
-98 -202 291 0
253 292 0
-253 -292 0
298 293 0
-298 -293 0
299 294 0
-299 -294 0
262 295 0
-262 -295 0
300 296 0
-300 -296 0
301 297 0
-301 -297 0
207 -298 0
79 -298 0
-207 -79 298 0
170 -299 0
302 -299 0
-170 -302 299 0
207 -300 0
98 -300 0
-207 -98 300 0
189 -301 0
303 -301 0
-189 -303 301 0
304 302 0
-304 -302 0
305 303 0
-305 -303 0
169 -304 0
141 -304 0
-169 -141 304 0
188 -305 0
157 -305 0
-188 -157 305 0
1 0
